NAME : random152.972.tour
COMMENT : Length = 972
COMMENT : Found by LKH [Keld Helsgaun] Mon Dec 30 21:12:12 2024
TYPE : TOUR
DIMENSION : 152
TOUR_SECTION
1
51
83
63
53
34
66
74
131
82
58
84
33
31
36
141
14
152
18
151
81
5
113
68
50
49
126
85
78
88
30
61
23
128
140
111
146
132
87
70
24
76
109
150
106
22
27
7
2
62
144
100
129
12
52
4
104
15
125
130
80
3
99
38
21
46
117
45
93
101
112
92
32
6
124
48
71
120
121
59
94
28
95
149
65
147
39
43
118
19
11
137
103
116
10
89
56
44
8
69
127
96
119
20
67
42
77
136
75
98
86
16
73
64
26
55
102
25
40
17
41
90
142
134
122
91
114
60
139
105
145
123
13
110
133
9
115
135
72
35
79
97
29
37
54
138
57
107
148
47
143
108
-1
EOF
